c ren 1 -> 1
c ren 2 -> 2
c ren 4 -> 3
c ren 9 -> 4
c ren 11 -> 5
c ren 12 -> 6
c ren 14 -> 7
c ren 16 -> 8
c ren 18 -> 9
c ren 24 -> 10
c ren 27 -> 11
c ren 28 -> 12
c ren 30 -> 13
c ren 34 -> 14
c ren 37 -> 15
c ren 38 -> 16
c ren 39 -> 17
c ren 47 -> 18
c ren 60 -> 19
c ren 69 -> 20
c ren 73 -> 21
c ren 74 -> 22
p cnf 22 59
a 1 2 3 5 6 7 8 9 11 12 13 15 20 22 0
d 16 11 20 0
d 18 1 9 0
d 19 5 13 0
d 21 15 22 0
e 4 10 14 17 0
-4 -6 -10 -14 -16 -17 22 0
-1 2 3 4 0
-3 -4 -10 -14 -17 -18 0
-2 -4 -10 -14 -17 -18 0
2 3 -4 -9 -10 -14 -17 18 0
-2 5 10 0
2 3 -5 6 7 8 9 10 0
-2 11 14 0
5 -7 10 0
2 3 6 7 8 9 -11 12 13 14 0
-7 11 14 0
2 3 -4 6 7 8 9 -10 -13 -14 -17 19 0
2 3 -4 6 7 8 9 -10 -12 13 -14 -17 0
-4 -7 -10 12 -14 -17 0
-4 -7 -10 -14 -17 -21 0
-4 -6 -10 12 -14 -17 0
-4 -10 12 -14 16 -17 20 22 0
-4 -10 12 -14 -17 20 21 -22 0
-4 -10 -12 -14 -16 -17 22 0
-15 -16 17 0
15 16 17 0
-4 -6 -10 -14 -17 -19 0
-4 -10 12 -13 -14 -17 0
-4 -10 -13 -14 -17 -21 0
-4 -7 -10 -14 -17 -19 0
-4 -7 -10 -14 -16 -17 22 0
-4 -10 -13 -14 -16 -17 22 0
11 -13 14 0
5 -8 10 0
-4 -10 -14 -16 -17 -20 22 0
-4 -8 -10 -14 -17 -19 0
-4 -8 -10 12 -14 -17 0
-8 11 14 0
-4 -8 -10 -14 -16 -17 22 0
-4 -8 -10 -14 -17 -21 0
-6 11 14 0
-2 -4 -10 12 -14 -17 0
-2 -4 -10 -14 -17 -19 0
-2 -4 -10 -14 -16 -17 22 0
11 -12 14 0
-2 -4 -10 -14 -17 -21 0
1 -2 4 0
-4 -6 -10 -14 -17 -21 0
-4 -10 -14 -17 -20 -21 0
1 -3 4 0
5 -9 10 0
-9 11 14 0
-4 -9 -10 12 -14 -17 0
-4 -9 -10 -14 -17 -19 0
-4 -9 -10 -14 -16 -17 22 0
-3 5 10 0
-3 11 14 0
-4 -9 -10 -14 -17 -21 0
-3 -4 -10 12 -14 -17 0
-4 -10 -12 -14 -17 -21 0
-3 -4 -10 -14 -16 -17 22 0
-3 -4 -10 -14 -17 -19 0
-3 -4 -10 -14 -17 -21 0
5 -6 10 0
